154745
0,86,43,65,58,9,26,27,57,75,73,33,82,79,56,88,92,11,22,91,8,41,80,85,24,44,98,67,18,68,5,87,12,97,30,64,96,7,105,51,4,54,28,29,19,55,39,15,63,89,16,20,76,45,61,21,84,10,40,66,53,70,36,48,31,17,6,62,34,74,102,3,14,42,78,90,59,95,93,77,2,69,100,104,37,103,94,35,47,72,38,83,52,32,1,71,81,50,99,60,46,13,49,25,101,23,0